8
2147483647 26 70 54 68 55 4 80 
26 2147483647 37 56 92 14 82 60 
70 37 2147483647 85 29 12 57 63 
54 56 85 2147483647 47 44 63 89 
68 92 29 47 2147483647 29 10 36 
55 14 12 44 29 2147483647 3 77 
4 82 57 63 10 3 2147483647 87 
80 60 63 89 36 77 87 2147483647 
